100 100 100
50
88 2 28
71 66 96
99 84 28
90 98 69
21 10 8
44 1 83
66 27 44
7 55 59
96 11 80
70 85 43
9 4 61
30 60 50
65 71 70
98 81 22
68 47 4
16 19 32
53 1 64
3 94 48
40 84 26
14 79 93
22 49 96
52 76 56
77 95 16
88 93 57
28 41 49
27 92 83
87 12 99
92 82 50
62 70 18
83 63 35
87 3 14
49 98 89
75 25 4
46 87 47
80 95 85
59 20 13
21 88 100
50 29 11
71 4 68
72 82 99
85 8 67
22 60 46
23 10 96
79 68 1
29 33 7
34 72 33
82 46 94
69 38 7
42 45 95
78 68 91
